Route #1: 5 26 29 9 28 24 
Route #2: 30 3 37 14 35 25 31 38 12 
Route #3: 11 6 21 23 17 36 1 
Route #4: 13 15 
Route #5: 20 32 10 16 27 34 22 18 
Route #6: 2 33 19 4 8 7 
cost 899.214
execution_time 12.953
